
Gurobi 9.5.1 (linux64) logging started Wed Jun  8 10:07:09 2022

Set parameter LogFile to value "../results/logs/log_facebook_combined_17_250_2022_06_08_10_07.log"
Gurobi Optimizer version 9.5.1 build v9.5.1rc2 (linux64)
Thread count: 8 physical cores, 8 logical processors, using up to 8 threads
Optimize a model with 1003 rows, 8078 columns and 27347 nonzeros
Model fingerprint: 0x6ebdfad3
Variable types: 0 continuous, 8078 integer (8078 binary)
Coefficient statistics:
  Matrix range     [1e+00, 2e+01]
  Objective range  [1e+00, 1e+00]
  Bounds range     [1e+00, 1e+00]
  RHS range        [1e+00, 2e+02]

User MIP start produced solution with objective 2474 (0.01s)
Loaded user MIP start with objective 2474

Presolve removed 33 rows and 6571 columns
Presolve time: 0.03s
Presolved: 970 rows, 1507 columns, 17213 nonzeros
Variable types: 0 continuous, 1507 integer (1423 binary)

Root relaxation: objective 2.547778e+03, 780 iterations, 0.01 seconds (0.01 work units)

    Nodes    |    Current Node    |     Objective Bounds      |     Work
 Expl Unexpl |  Obj  Depth IntInf | Incumbent    BestBd   Gap | It/Node Time

     0     0 2547.77825    0  108 2474.00000 2547.77825  2.98%     -    0s
H    0     0                    2495.0000000 2547.77825  2.12%     -    0s
H    0     0                    2497.0000000 2547.77825  2.03%     -    0s
H    0     0                    2499.0000000 2547.77825  1.95%     -    0s
     0     0 2543.00702    0  176 2499.00000 2543.00702  1.76%     -    0s
H    0     0                    2513.0000000 2543.00702  1.19%     -    0s
H    0     0                    2524.0000000 2543.00702  0.75%     -    0s
     0     0 2541.07291    0  173 2524.00000 2541.07291  0.68%     -    0s
     0     0 2541.03281    0  173 2524.00000 2541.03281  0.67%     -    0s
     0     0 2541.03209    0  173 2524.00000 2541.03209  0.67%     -    0s
H    0     0                    2526.0000000 2537.17070  0.44%     -    0s
     0     0 2537.17070    0  144 2526.00000 2537.17070  0.44%     -    0s
     0     0 2536.61081    0  139 2526.00000 2536.61081  0.42%     -    0s
     0     0 2536.54009    0  129 2526.00000 2536.54009  0.42%     -    0s
     0     0 2536.53466    0  118 2526.00000 2536.53466  0.42%     -    0s
     0     0 2536.53443    0  123 2526.00000 2536.53443  0.42%     -    0s
H    0     0                    2532.0000000 2536.53443  0.18%     -    0s
     0     0 2535.40691    0  106 2532.00000 2535.40691  0.13%     -    0s
H    0     0                    2533.0000000 2535.40691  0.10%     -    0s
     0     0 2534.88535    0   84 2533.00000 2534.88535  0.07%     -    0s
     0     0 2534.80559    0   70 2533.00000 2534.80559  0.07%     -    0s
     0     0 2534.75281    0   89 2533.00000 2534.75281  0.07%     -    0s
     0     0 2534.68704    0   56 2533.00000 2534.68704  0.07%     -    0s
     0     0 2534.68680    0   70 2533.00000 2534.68680  0.07%     -    0s
     0     0 2534.26722    0   68 2533.00000 2534.26722  0.05%     -    0s
     0     0 2534.26722    0   33 2533.00000 2534.26722  0.05%     -    0s
     0     0 2534.26722    0   43 2533.00000 2534.26722  0.05%     -    0s
     0     0 2534.26722    0   42 2533.00000 2534.26722  0.05%     -    0s
     0     0 2534.26722    0   52 2533.00000 2534.26722  0.05%     -    0s
     0     0 2534.26722    0   45 2533.00000 2534.26722  0.05%     -    0s
     0     0 2534.26722    0   44 2533.00000 2534.26722  0.05%     -    0s
     0     0     cutoff    0      2533.00000 2533.00000  0.00%     -    0s

Cutting planes:
  Gomory: 21
  Cover: 1
  Implied bound: 6
  Clique: 1
  MIR: 19
  StrongCG: 2
  GUB cover: 13
  Zero half: 1
  RLT: 7
  Relax-and-lift: 2

Explored 1 nodes (2669 simplex iterations) in 0.39 seconds (0.34 work units)
Thread count was 8 (of 8 available processors)

Solution count 10: 2533 2533 2532 ... 2497

Optimal solution found (tolerance 0.00e+00)
Best objective 2.533000000000e+03, best bound 2.533000000000e+03, gap 0.0000%
